NAME: ../File/prFile/tspFile/tsp_file13.tsp
COMMENT: TSP file generated by Python
TYPE: TSP
DIMENSION: 30
EDGE_WEIGHT_TYPE: EUC_2D
NODE_COORD_SECTION
1 61 71
2 10 82
3 4 58
4 9 65
5 20 77
6 71 62
7 71 96
8 72 88
9 60 47
10 25 9
11 25 86
12 14 59
13 2 63
14 18 19
15 39 75
16 5 22
17 46 57
18 64 31
19 35 85
20 76 91
21 93 13
22 41 28
23 73 43
24 51 97
25 21 33
26 2 29
27 6 72
28 43 39
29 16 85
30 15 64
EOF
